6188 1 0 1 2 0
6189 -2111 0 1 3 0
6190 2110 0 6189 6188 7 0
6191 -2109 0 6190 9 0
6192 2108 0 6191 6188 13 0
6193 -2107 0 6192 15 0
6194 2106 0 6193 6188 19 0
6195 -1659 0 6194 20 0
6196 -2105 0 6194 21 0
6197 -2103 -2104 0 6196 25 0
6198 2104 130 0 6195 28 0
6199 2103 2102 0 6188 31 0
6200 2099 2098 0 6188 43 0
6201 2095 2094 0 6188 55 0
6202 2091 2090 0 6188 67 0
6203 2087 2086 0 6188 79 0
6204 2083 2082 0 6188 91 0
6205 2079 2078 0 6188 103 0
6206 2075 2074 0 6188 115 0
6207 2071 2070 0 6188 127 0
6208 2067 2066 0 6188 139 0
6209 2063 2062 0 6188 151 0
6210 2059 2058 0 6188 163 0
6211 2055 2054 0 6188 175 0
6212 2051 2050 0 6188 187 0
6213 2047 2046 0 6188 199 0
6214 2043 2042 0 6188 211 0
6215 2039 2038 0 6188 223 0
6216 2035 2034 0 6188 235 0
6217 2031 2030 0 6188 247 0
6218 2027 2026 0 6188 259 0
6219 2023 2022 0 6188 271 0
6220 2019 2018 0 6188 283 0
6221 2015 2014 0 6188 295 0
6222 2011 2010 0 6188 307 0
6223 2007 2006 0 6188 319 0
6224 2003 2002 0 6188 331 0
6225 1999 1998 0 6188 343 0
6226 1995 1994 0 6188 355 0
6227 1991 1990 0 6188 367 0
6228 1987 1986 0 6188 379 0
6229 1983 1982 0 6188 391 0
6230 1979 1978 0 6188 403 0
6231 1975 1974 0 6188 415 0
6232 1971 1970 0 6188 427 0
6233 1967 1966 0 6188 439 0
6234 1963 1962 0 6188 451 0
6235 1959 1958 0 6188 463 0
6236 1955 1954 0 6188 475 0
6237 1951 1950 0 6188 487 0
6238 1947 1946 0 6188 499 0
6239 1943 1942 0 6188 511 0
6240 1939 1938 0 6188 523 0
6241 1935 1934 0 6188 535 0
6242 1931 1930 0 6188 547 0
6243 1927 1926 0 6188 559 0
6244 1923 1922 0 6188 571 0
6245 1919 1918 0 6188 583 0
6246 1915 1914 0 6188 595 0
6247 1911 1910 0 6188 607 0
6248 1907 1906 0 6188 619 0
6249 1903 1902 0 6188 631 0
6250 1899 1898 0 6188 643 0
6251 1895 1894 0 6188 655 0
6252 1891 1890 0 6188 667 0
6253 1887 1886 0 6188 679 0
6254 1883 1882 0 6188 691 0
6255 1879 1878 0 6188 703 0
6256 1875 1874 0 6188 715 0
6257 1871 1870 0 6188 727 0
6258 1867 1866 0 6188 739 0
6259 1863 1862 0 6188 751 0
6260 1859 1858 0 6188 763 0
6261 1855 1854 0 6188 775 0
6262 2104 0 6186 6198 0
6263 -2103 0 6262 6197 0
6264 2102 0 6263 6199 0
6265 -1651 0 6264 32 0
6266 -2101 0 6264 33 0
6267 2100 0 6265 6186 40 0
6268 -2099 0 6266 6267 37 0
6269 2098 0 6268 6200 0
6270 -1643 0 6269 44 0
6271 -2097 0 6269 45 0
6272 2096 0 6270 6186 52 0
6273 -2095 0 6271 6272 49 0
6274 2094 0 6273 6201 0
6275 -1635 0 6274 56 0
6276 -2093 0 6274 57 0
6277 2092 0 6275 6186 64 0
6278 -2091 0 6276 6277 61 0
6279 2090 0 6278 6202 0
6280 -1627 0 6279 68 0
6281 -2089 0 6279 69 0
6282 2088 0 6280 6186 76 0
6283 -2087 0 6281 6282 73 0
6284 2086 0 6283 6203 0
6285 -1619 0 6284 80 0
6286 -2085 0 6284 81 0
6287 2084 0 6285 6186 88 0
6288 -2083 0 6286 6287 85 0
6289 2082 0 6288 6204 0
6290 -1611 0 6289 92 0
6291 -2081 0 6289 93 0
6292 2080 0 6290 6186 100 0
6293 -2079 0 6291 6292 97 0
6294 2078 0 6293 6205 0
6295 -1603 0 6294 104 0
6296 -2077 0 6294 105 0
6297 2076 0 6295 6186 112 0
6298 -2075 0 6296 6297 109 0
6299 2074 0 6298 6206 0
6300 -1595 0 6299 116 0
6301 -2073 0 6299 117 0
6302 2072 0 6300 6186 124 0
6303 -2071 0 6301 6302 121 0
6304 2070 0 6303 6207 0
6305 -1587 0 6304 128 0
6306 -2069 0 6304 129 0
6307 2068 0 6305 6186 136 0
6308 -2067 0 6306 6307 133 0
6309 2066 0 6308 6208 0
6310 -1579 0 6309 140 0
6311 -2065 0 6309 141 0
6312 2064 0 6310 6186 148 0
6313 -2063 0 6311 6312 145 0
6314 2062 0 6313 6209 0
6315 -1571 0 6314 152 0
6316 -2061 0 6314 153 0
6317 2060 0 6315 6186 160 0
6318 -2059 0 6316 6317 157 0
6319 2058 0 6318 6210 0
6320 -1563 0 6319 164 0
6321 -2057 0 6319 165 0
6322 2056 0 6320 6186 172 0
6323 -2055 0 6321 6322 169 0
6324 2054 0 6323 6211 0
6325 -1555 0 6324 176 0
6326 -2053 0 6324 177 0
6327 2052 0 6325 6186 184 0
6328 -2051 0 6326 6327 181 0
6329 2050 0 6328 6212 0
6330 -1547 0 6329 188 0
6331 -2049 0 6329 189 0
6332 2048 0 6330 6186 196 0
6333 -2047 0 6331 6332 193 0
6334 2046 0 6333 6213 0
6335 -1539 0 6334 200 0
6336 -2045 0 6334 201 0
6337 2044 0 6335 6186 208 0
6338 -2043 0 6336 6337 205 0
6339 2042 0 6338 6214 0
6340 -1531 0 6339 212 0
6341 -2041 0 6339 213 0
6342 2040 0 6340 6186 220 0
6343 -2039 0 6341 6342 217 0
6344 2038 0 6343 6215 0
6345 -1523 0 6344 224 0
6346 -2037 0 6344 225 0
6347 2036 0 6345 6186 232 0
6348 -2035 0 6346 6347 229 0
6349 2034 0 6348 6216 0
6350 -1515 0 6349 236 0
6351 -2033 0 6349 237 0
6352 2032 0 6350 6186 244 0
6353 -2031 0 6351 6352 241 0
6354 2030 0 6353 6217 0
6355 -1507 0 6354 248 0
6356 -2029 0 6354 249 0
6357 2028 0 6355 6186 256 0
6358 -2027 0 6356 6357 253 0
6359 2026 0 6358 6218 0
6360 -1499 0 6359 260 0
6361 -2025 0 6359 261 0
6362 2024 0 6360 6186 268 0
6363 -2023 0 6361 6362 265 0
6364 2022 0 6363 6219 0
6365 -1491 0 6364 272 0
6366 -2021 0 6364 273 0
6367 2020 0 6365 6186 280 0
6368 -2019 0 6366 6367 277 0
6369 2018 0 6368 6220 0
6370 -1483 0 6369 284 0
6371 -2017 0 6369 285 0
6372 2016 0 6370 6186 292 0
6373 -2015 0 6371 6372 289 0
6374 2014 0 6373 6221 0
6375 -1475 0 6374 296 0
6376 -2013 0 6374 297 0
6377 2012 0 6375 6186 304 0
6378 -2011 0 6376 6377 301 0
6379 2010 0 6378 6222 0
6380 -1467 0 6379 308 0
6381 -2009 0 6379 309 0
6382 2008 0 6380 6186 316 0
6383 -2007 0 6381 6382 313 0
6384 2006 0 6383 6223 0
6385 -1459 0 6384 320 0
6386 -2005 0 6384 321 0
6387 2004 0 6385 6186 328 0
6388 -2003 0 6386 6387 325 0
6389 2002 0 6388 6224 0
6390 -1451 0 6389 332 0
6391 -2001 0 6389 333 0
6392 2000 0 6390 6186 340 0
6393 -1999 0 6391 6392 337 0
6394 1998 0 6393 6225 0
6395 -1443 0 6394 344 0
6396 -1997 0 6394 345 0
6397 1996 0 6395 6186 352 0
6398 -1995 0 6396 6397 349 0
6399 1994 0 6398 6226 0
6400 -1435 0 6399 356 0
6401 -1993 0 6399 357 0
6402 1992 0 6400 6186 364 0
6403 -1991 0 6401 6402 361 0
6404 1990 0 6403 6227 0
6405 -1427 0 6404 368 0
6406 -1989 0 6404 369 0
6407 1988 0 6405 6186 376 0
6408 -1987 0 6406 6407 373 0
6409 1986 0 6408 6228 0
6410 -1419 0 6409 380 0
6411 -1985 0 6409 381 0
6412 1984 0 6410 6186 388 0
6413 -1983 0 6411 6412 385 0
6414 1982 0 6413 6229 0
6415 -1411 0 6414 392 0
6416 -1981 0 6414 393 0
6417 1980 0 6415 6186 400 0
6418 -1979 0 6416 6417 397 0
6419 1978 0 6418 6230 0
6420 -1403 0 6419 404 0
6421 -1977 0 6419 405 0
6422 1976 0 6420 6186 412 0
6423 -1975 0 6421 6422 409 0
6424 1974 0 6423 6231 0
6425 -1395 0 6424 416 0
6426 -1973 0 6424 417 0
6427 1972 0 6425 6186 424 0
6428 -1971 0 6426 6427 421 0
6429 1970 0 6428 6232 0
6430 -1387 0 6429 428 0
6431 -1969 0 6429 429 0
6432 1968 0 6430 6186 436 0
6433 -1967 0 6431 6432 433 0
6434 1966 0 6433 6233 0
6435 -1379 0 6434 440 0
6436 -1965 0 6434 441 0
6437 1964 0 6435 6186 448 0
6438 -1963 0 6436 6437 445 0
6439 1962 0 6438 6234 0
6440 -1371 0 6439 452 0
6441 -1961 0 6439 453 0
6442 1960 0 6440 6186 460 0
6443 -1959 0 6441 6442 457 0
6444 1958 0 6443 6235 0
6445 -1363 0 6444 464 0
6446 -1957 0 6444 465 0
6447 1956 0 6445 6186 472 0
6448 -1955 0 6446 6447 469 0
6449 1954 0 6448 6236 0
6450 -1355 0 6449 476 0
6451 -1953 0 6449 477 0
6452 1952 0 6450 6186 484 0
6453 -1951 0 6451 6452 481 0
6454 1950 0 6453 6237 0
6455 -1347 0 6454 488 0
6456 -1949 0 6454 489 0
6457 1948 0 6455 6186 496 0
6458 -1947 0 6456 6457 493 0
6459 1946 0 6458 6238 0
6460 -1339 0 6459 500 0
6461 -1945 0 6459 501 0
6462 1944 0 6460 6186 508 0
6463 -1943 0 6461 6462 505 0
6464 1942 0 6463 6239 0
6465 -1331 0 6464 512 0
6466 -1941 0 6464 513 0
6467 1940 0 6465 6186 520 0
6468 -1939 0 6466 6467 517 0
6469 1938 0 6468 6240 0
6470 -1323 0 6469 524 0
6471 -1937 0 6469 525 0
6472 1936 0 6470 6186 532 0
6473 -1935 0 6471 6472 529 0
6474 1934 0 6473 6241 0
6475 -1315 0 6474 536 0
6476 -1933 0 6474 537 0
6477 1932 0 6475 6186 544 0
6478 -1931 0 6476 6477 541 0
6479 1930 0 6478 6242 0
6480 -1307 0 6479 548 0
6481 -1929 0 6479 549 0
6482 1928 0 6480 6186 556 0
6483 -1927 0 6481 6482 553 0
6484 1926 0 6483 6243 0
6485 -1299 0 6484 560 0
6486 -1925 0 6484 561 0
6487 1924 0 6485 6186 568 0
6488 -1923 0 6486 6487 565 0
6489 1922 0 6488 6244 0
6490 -1291 0 6489 572 0
6491 -1921 0 6489 573 0
6492 1920 0 6490 6186 580 0
6493 -1919 0 6491 6492 577 0
6494 1918 0 6493 6245 0
6495 -1283 0 6494 584 0
6496 -1917 0 6494 585 0
6497 1916 0 6495 6186 592 0
6498 -1915 0 6496 6497 589 0
6499 1914 0 6498 6246 0
6500 -1275 0 6499 596 0
6501 -1913 0 6499 597 0
6502 1912 0 6500 6186 604 0
6503 -1911 0 6501 6502 601 0
6504 1910 0 6503 6247 0
6505 -1267 0 6504 608 0
6506 -1909 0 6504 609 0
6507 1908 0 6505 6186 616 0
6508 -1907 0 6506 6507 613 0
6509 1906 0 6508 6248 0
6510 -1259 0 6509 620 0
6511 -1905 0 6509 621 0
6512 1904 0 6510 6186 628 0
6513 -1903 0 6511 6512 625 0
6514 1902 0 6513 6249 0
6515 -1251 0 6514 632 0
6516 -1901 0 6514 633 0
6517 1900 0 6515 6186 640 0
6518 -1899 0 6516 6517 637 0
6519 1898 0 6518 6250 0
6520 -1243 0 6519 644 0
6521 -1897 0 6519 645 0
6522 1896 0 6520 6186 652 0
6523 -1895 0 6521 6522 649 0
6524 1894 0 6523 6251 0
6525 -1235 0 6524 656 0
6526 -1893 0 6524 657 0
6527 1892 0 6525 6186 664 0
6528 -1891 0 6526 6527 661 0
6529 1890 0 6528 6252 0
6530 -1227 0 6529 668 0
6531 -1889 0 6529 669 0
6532 1888 0 6530 6186 676 0
6533 -1887 0 6531 6532 673 0
6534 1886 0 6533 6253 0
6535 -1219 0 6534 680 0
6536 -1885 0 6534 681 0
6537 1884 0 6535 6186 688 0
6538 -1883 0 6536 6537 685 0
6539 1882 0 6538 6254 0
6540 -1211 0 6539 692 0
6541 -1881 0 6539 693 0
6542 1880 0 6540 6186 700 0
6543 -1879 0 6541 6542 697 0
6544 1878 0 6543 6255 0
6545 -1203 0 6544 704 0
6546 -1877 0 6544 705 0
6547 1876 0 6545 6186 712 0
6548 -1875 0 6546 6547 709 0
6549 1874 0 6548 6256 0
6550 -1195 0 6549 716 0
6551 -1873 0 6549 717 0
6552 1872 0 6550 6186 724 0
6553 -1871 0 6551 6552 721 0
6554 1870 0 6553 6257 0
6555 -1187 0 6554 728 0
6556 -1869 0 6554 729 0
6557 1868 0 6555 6186 736 0
6558 -1867 0 6556 6557 733 0
6559 1866 0 6558 6258 0
6560 -1179 0 6559 740 0
6561 -1865 0 6559 741 0
6562 1864 0 6560 6186 748 0
6563 -1863 0 6561 6562 745 0
6564 1862 0 6563 6259 0
6565 -1171 0 6564 752 0
6566 -1861 0 6564 753 0
6567 1860 0 6565 6186 760 0
6568 -1859 0 6566 6567 757 0
6569 1858 0 6568 6260 0
6570 -1163 0 6569 764 0
6571 -1857 0 6569 765 0
6572 1856 0 6570 6186 772 0
6573 -1855 0 6571 6572 769 0
6574 1854 0 6573 6261 0
6575 -1155 0 6574 776 0
6576 -1853 0 6574 777 0
6577 0 6576 6575 6186 781 0
